; aiosonic :: corpus-study/repo_src/aiosonic/aiosonic/pools.py :: QUEUE 'CyclicQueuePool.pool' :: naive encoding (verdict: unsat)
; Generated by snf-pipeline (encoder.py) -- run with any
; SMT-LIB2-compliant solver, e.g. `z3 aiosonic__corpus-study_repo_src_aiosonic_aiosonic_pools.py__CyclicQueuePool.pool__naive.smt2`
; benchmark generated from python API
(set-info :status unknown)
(declare-fun conn_0 () Int)
(assert
 (>= conn_0 1))
(assert
 (<= conn_0 2))
(assert
 false)
(check-sat)
